\ Generated by MPModelProtoExporter
\   Name             : SCIP
\   Format           : Free
\   Constraints      : 45
\   Variables        : 465
\     Binary         : 465
\     Integer        : 0
\     Continuous     : 0
Minimize
 Obj: +93 x[0,0] +69 x[1,0] +34 x[2,0] +42 x[3,0] +77 x[4,0] +62 x[5,0] +81 x[6,0] +38 x[7,0] +55 x[8,0] +67 x[9,0] +34 x[10,0] +21 x[11,0] +44 x[12,0] +99 x[13,0] +24 x[14,0] +78 x[15,0] +62 x[16,0] +91 x[17,0] +85 x[18,0] +56 x[19,0] +73 x[20,0] +25 x[22,0] +47 x[23,0] +35 x[24,0] +60 x[25,0] +12 x[26,0] +34 x[27,0] +7 x[28,0] +72 x[29,0] +19 x[0,1] +45 x[1,1] +50 x[2,1] +42 x[3,1] +58 x[4,1] +78 x[5,1] +31 x[6,1] +41 x[7,1] +62 x[9,1] +6 x[10,1] +31 x[11,1] +49 x[12,1] +20 x[13,1] +42 x[14,1] +52 x[15,1] +24 x[16,1] +33 x[17,1] +50 x[18,1] +53 x[19,1] +92 x[21,1] +43 x[22,1] +68 x[23,1] +98 x[24,1] +95 x[25,1] +78 x[26,1] +19 x[27,1] +98 x[28,1] +53 x[29,1] +53 x[0,2] +8 x[1,2] +3 x[2,2] +53 x[3,2] +31 x[4,2] +63 x[5,2] +83 x[6,2] +69 x[7,2] +25 x[8,2] +11 x[9,2] +31 x[10,2] +42 x[11,2] +26 x[12,2] +59 x[13,2] +88 x[14,2] +59 x[15,2] +65 x[16,2] +3 x[17,2] +95 x[18,2] +10 x[19,2] +30 x[20,2] +32 x[21,2] +78 x[22,2] +20 x[23,2] +81 x[24,2] +44 x[25,2] +24 x[26,2] +96 x[27,2] +89 x[28,2] +68 x[29,2] +59 x[0,3] +24 x[1,3] +96 x[2,3] +39 x[3,3] +63 x[4,3] +84 x[5,3] +21 x[6,3] +22 x[7,3] +66 x[8,3] +79 x[9,3] +15 x[10,3] +1 x[11,3] +8 x[12,3] +99 x[13,3] +91 x[14,3] +52 x[15,3] +1 x[16,3] +99 x[17,3] +48 x[18,3] +83 x[19,3] +37 x[20,3] +88 x[21,3] +54 x[22,3] +72 x[23,3] +43 x[24,3] +8 x[25,3] +22 x[26,3] +44 x[27,3] +40 x[28,3] +34 x[29,3] +62 x[0,4] +61 x[1,4] +99 x[2,4] +85 x[3,4] +88 x[4,4] +32 x[5,4] +44 x[6,4] +75 x[7,4] +62 x[8,4] +63 x[9,4] +22 x[10,4] +1 x[11,4] +99 x[12,4] +49 x[13,4] +87 x[14,4] +73 x[15,4] +35 x[16,4] +56 x[17,4] +12 x[18,4] +99 x[19,4] +56 x[20,4] +46 x[21,4] +61 x[22,4] +75 x[23,4] +13 x[24,4] +57 x[25,4] +71 x[26,4] +42 x[27,4] +29 x[28,4] +24 x[29,4] +75 x[0,5] +35 x[1,5] +11 x[2,5] +38 x[3,5] +27 x[4,5] +96 x[5,5] +98 x[6,5] +2 x[7,5] +7 x[8,5] +60 x[9,5] +68 x[10,5] +35 x[11,5] +70 x[12,5] +92 x[13,5] +33 x[14,5] +83 x[15,5] +93 x[16,5] +25 x[17,5] +75 x[18,5] +77 x[19,5] +78 x[20,5] +37 x[21,5] +17 x[22,5] +37 x[23,5] +77 x[24,5] +82 x[25,5] +58 x[26,5] +61 x[27,5] +60 x[28,5] +43 x[29,5] +67 x[0,6] +11 x[1,6] +25 x[2,6] +31 x[3,6] +11 x[4,6] +90 x[5,6] +62 x[6,6] +3 x[7,6] +93 x[8,6] +15 x[9,6] +96 x[10,6] +80 x[11,6] +58 x[12,6] +8 x[13,6] +26 x[14,6] +76 x[15,6] +24 x[16,6] +66 x[17,6] +14 x[18,6] +86 x[19,6] +82 x[20,6] +51 x[21,6] +56 x[22,6] +17 x[23,6] +57 x[24,6] +87 x[25,6] +43 x[26,6] +8 x[27,6] +33 x[28,6] +46 x[29,6] +68 x[0,7] +53 x[1,7] +78 x[2,7] +10 x[3,7] +57 x[4,7] +81 x[5,7] +27 x[6,7] +77 x[7,7] +14 x[8,7] +88 x[9,7] +76 x[10,7] +28 x[11,7] +1 x[12,7] +84 x[13,7] +51 x[14,7] +72 x[15,7] +57 x[16,7] +88 x[17,7] +2 x[18,7] +48 x[19,7] +15 x[20,7] +17 x[21,7] +6 x[22,7] +98 x[23,7] +21 x[24,7] +4 x[25,7] +44 x[26,7] +91 x[27,7] +62 x[28,7] +2 x[29,7] +95 x[0,8] +4 x[1,8] +27 x[2,8] +95 x[3,8] +5 x[4,8] +60 x[5,8] +7 x[6,8] +47 x[7,8] +77 x[8,8] +40 x[9,8] +91 x[10,8] +14 x[11,8] +26 x[12,8] +62 x[13,8] +47 x[14,8] +53 x[15,8] +69 x[16,8] +41 x[17,8] +90 x[18,8] +79 x[19,8] +65 x[20,8] +4 x[21,8] +71 x[22,8] +11 x[23,8] +41 x[24,8] +22 x[25,8] +99 x[26,8] +66 x[27,8] +92 x[28,8] +75 x[29,8] +54 x[0,9] +69 x[1,9] +1 x[2,9] +51 x[3,9] +82 x[4,9] +9 x[5,9] +66 x[6,9] +32 x[7,9] +80 x[8,9] +76 x[9,9] +52 x[10,9] +31 x[11,9] +76 x[12,9] +24 x[13,9] +35 x[14,9] +24 x[15,9] +60 x[16,9] +65 x[17,9] +90 x[18,9] +68 x[19,9] +7 x[20,9] +41 x[21,9] +28 x[22,9] +24 x[23,9] +93 x[24,9] +6 x[25,9] +62 x[26,9] +94 x[27,9] +21 x[28,9] +29 x[29,9] +42 x[0,10] +98 x[1,10] +77 x[2,10] +2 x[3,10] +6 x[4,10] +33 x[5,10] +44 x[6,10] +71 x[7,10] +79 x[8,10] +48 x[9,10] +20 x[10,10] +99 x[11,10] +54 x[12,10] +92 x[13,10] +56 x[14,10] +56 x[15,10] +22 x[16,10] +73 x[17,10] +67 x[18,10] +92 x[19,10] +87 x[20,10] +37 x[22,10] +17 x[23,10] +44 x[24,10] +99 x[25,10] +93 x[26,10] +38 x[27,10] +65 x[28,10] +98 x[29,10] +81 x[0,11] +13 x[1,11] +19 x[2,11] +28 x[3,11] +11 x[4,11] +81 x[5,11] +79 x[6,11] +5 x[7,11] +64 x[8,11] +43 x[9,11] +33 x[10,11] +23 x[11,11] +31 x[12,11] +20 x[13,11] +51 x[14,11] +7 x[15,11] +42 x[16,11] +76 x[17,11] +19 x[18,11] +79 x[19,11] +69 x[20,11] +24 x[21,11] +41 x[22,11] +36 x[23,11] +72 x[24,11] +76 x[25,11] +69 x[26,11] +34 x[27,11] +32 x[28,11] +7 x[29,11] +28 x[0,12] +26 x[1,12] +39 x[2,12] +35 x[3,12] +22 x[4,12] +7 x[5,12] +68 x[6,12] +61 x[7,12] +98 x[8,12] +41 x[9,12] +89 x[10,12] +49 x[11,12] +15 x[12,12] +14 x[13,12] +95 x[14,12] +64 x[15,12] +50 x[16,12] +13 x[17,12] +42 x[18,12] +20 x[19,12] +48 x[20,12] +5 x[21,12] +67 x[22,12] +56 x[23,12] +92 x[24,12] +87 x[25,12] +41 x[26,12] +2 x[27,12] +30 x[28,12] +22 x[29,12] +69 x[0,13] +23 x[1,13] +8 x[2,13] +23 x[3,13] +97 x[4,13] +86 x[5,13] +66 x[6,13] +56 x[7,13] +85 x[9,13] +30 x[10,13] +41 x[11,13] +5 x[12,13] +84 x[13,13] +51 x[14,13] +43 x[15,13] +35 x[16,13] +96 x[17,13] +3 x[18,13] +87 x[19,13] +63 x[20,13] +8 x[21,13] +60 x[22,13] +6 x[23,13] +78 x[24,13] +73 x[25,13] +64 x[26,13] +25 x[27,13] +28 x[28,13] +95 x[29,13] +82 x[0,14] +53 x[1,14] +51 x[2,14] +3 x[3,14] +71 x[4,14] +57 x[5,14] +24 x[6,14] +79 x[7,14] +23 x[8,14] +60 x[9,14] +31 x[10,14] +3 x[11,14] +76 x[12,14] +77 x[13,14] +21 x[14,14] +25 x[16,14] +33 x[17,14] +33 x[18,14] +88 x[19,14] +89 x[20,14] +65 x[21,14] +24 x[22,14] +88 x[23,14] +28 x[24,14] +18 x[25,14] +3 x[26,14] +33 x[27,14] +75 x[28,14] +74 x[29,14] +1868 y[0] +1532 y[1] +4489 y[2] +838 y[3] +3715 y[4] +736 y[5] +1872 y[6] +3032 y[7] +1360 y[8] +1328 y[9] +2005 y[10] +1884 y[11] +1449 y[12] +1839 y[13] +4036 y[14] 
Subject to
 auto_c_000000000: +1 x[0,0] +1 x[0,1] +1 x[0,2] +1 x[0,3] +1 x[0,4] +1 x[0,5] +1 x[0,6] +1 x[0,7] +1 x[0,8] +1 x[0,9] +1 x[0,10] +1 x[0,11] +1 x[0,12] +1 x[0,13] +1 x[0,14]  = 1
 auto_c_000000001: +1 x[1,0] +1 x[1,1] +1 x[1,2] +1 x[1,3] +1 x[1,4] +1 x[1,5] +1 x[1,6] +1 x[1,7] +1 x[1,8] +1 x[1,9] +1 x[1,10] +1 x[1,11] +1 x[1,12] +1 x[1,13] +1 x[1,14]  = 1
 auto_c_000000002: +1 x[2,0] +1 x[2,1] +1 x[2,2] +1 x[2,3] +1 x[2,4] +1 x[2,5] +1 x[2,6] +1 x[2,7] +1 x[2,8] +1 x[2,9] +1 x[2,10] +1 x[2,11] +1 x[2,12] +1 x[2,13] +1 x[2,14]  = 1
 auto_c_000000003: +1 x[3,0] +1 x[3,1] +1 x[3,2] +1 x[3,3] +1 x[3,4] +1 x[3,5] +1 x[3,6] +1 x[3,7] +1 x[3,8] +1 x[3,9] +1 x[3,10] +1 x[3,11] +1 x[3,12] +1 x[3,13] +1 x[3,14]  = 1
 auto_c_000000004: +1 x[4,0] +1 x[4,1] +1 x[4,2] +1 x[4,3] +1 x[4,4] +1 x[4,5] +1 x[4,6] +1 x[4,7] +1 x[4,8] +1 x[4,9] +1 x[4,10] +1 x[4,11] +1 x[4,12] +1 x[4,13] +1 x[4,14]  = 1
 auto_c_000000005: +1 x[5,0] +1 x[5,1] +1 x[5,2] +1 x[5,3] +1 x[5,4] +1 x[5,5] +1 x[5,6] +1 x[5,7] +1 x[5,8] +1 x[5,9] +1 x[5,10] +1 x[5,11] +1 x[5,12] +1 x[5,13] +1 x[5,14]  = 1
 auto_c_000000006: +1 x[6,0] +1 x[6,1] +1 x[6,2] +1 x[6,3] +1 x[6,4] +1 x[6,5] +1 x[6,6] +1 x[6,7] +1 x[6,8] +1 x[6,9] +1 x[6,10] +1 x[6,11] +1 x[6,12] +1 x[6,13] +1 x[6,14]  = 1
 auto_c_000000007: +1 x[7,0] +1 x[7,1] +1 x[7,2] +1 x[7,3] +1 x[7,4] +1 x[7,5] +1 x[7,6] +1 x[7,7] +1 x[7,8] +1 x[7,9] +1 x[7,10] +1 x[7,11] +1 x[7,12] +1 x[7,13] +1 x[7,14]  = 1
 auto_c_000000008: +1 x[8,0] +1 x[8,1] +1 x[8,2] +1 x[8,3] +1 x[8,4] +1 x[8,5] +1 x[8,6] +1 x[8,7] +1 x[8,8] +1 x[8,9] +1 x[8,10] +1 x[8,11] +1 x[8,12] +1 x[8,13] +1 x[8,14]  = 1
 auto_c_000000009: +1 x[9,0] +1 x[9,1] +1 x[9,2] +1 x[9,3] +1 x[9,4] +1 x[9,5] +1 x[9,6] +1 x[9,7] +1 x[9,8] +1 x[9,9] +1 x[9,10] +1 x[9,11] +1 x[9,12] +1 x[9,13] +1 x[9,14]  = 1
 auto_c_000000010: +1 x[10,0] +1 x[10,1] +1 x[10,2] +1 x[10,3] +1 x[10,4] +1 x[10,5] +1 x[10,6] +1 x[10,7] +1 x[10,8] +1 x[10,9] +1 x[10,10] +1 x[10,11] +1 x[10,12] +1 x[10,13] +1 x[10,14]  = 1
 auto_c_000000011: +1 x[11,0] +1 x[11,1] +1 x[11,2] +1 x[11,3] +1 x[11,4] +1 x[11,5] +1 x[11,6] +1 x[11,7] +1 x[11,8] +1 x[11,9] +1 x[11,10] +1 x[11,11] +1 x[11,12] +1 x[11,13] +1 x[11,14]  = 1
 auto_c_000000012: +1 x[12,0] +1 x[12,1] +1 x[12,2] +1 x[12,3] +1 x[12,4] +1 x[12,5] +1 x[12,6] +1 x[12,7] +1 x[12,8] +1 x[12,9] +1 x[12,10] +1 x[12,11] +1 x[12,12] +1 x[12,13] +1 x[12,14]  = 1
 auto_c_000000013: +1 x[13,0] +1 x[13,1] +1 x[13,2] +1 x[13,3] +1 x[13,4] +1 x[13,5] +1 x[13,6] +1 x[13,7] +1 x[13,8] +1 x[13,9] +1 x[13,10] +1 x[13,11] +1 x[13,12] +1 x[13,13] +1 x[13,14]  = 1
 auto_c_000000014: +1 x[14,0] +1 x[14,1] +1 x[14,2] +1 x[14,3] +1 x[14,4] +1 x[14,5] +1 x[14,6] +1 x[14,7] +1 x[14,8] +1 x[14,9] +1 x[14,10] +1 x[14,11] +1 x[14,12] +1 x[14,13] +1 x[14,14]  = 1
 auto_c_000000015: +1 x[15,0] +1 x[15,1] +1 x[15,2] +1 x[15,3] +1 x[15,4] +1 x[15,5] +1 x[15,6] +1 x[15,7] +1 x[15,8] +1 x[15,9] +1 x[15,10] +1 x[15,11] +1 x[15,12] +1 x[15,13] +1 x[15,14]  = 1
 auto_c_000000016: +1 x[16,0] +1 x[16,1] +1 x[16,2] +1 x[16,3] +1 x[16,4] +1 x[16,5] +1 x[16,6] +1 x[16,7] +1 x[16,8] +1 x[16,9] +1 x[16,10] +1 x[16,11] +1 x[16,12] +1 x[16,13] +1 x[16,14]  = 1
 auto_c_000000017: +1 x[17,0] +1 x[17,1] +1 x[17,2] +1 x[17,3] +1 x[17,4] +1 x[17,5] +1 x[17,6] +1 x[17,7] +1 x[17,8] +1 x[17,9] +1 x[17,10] +1 x[17,11] +1 x[17,12] +1 x[17,13] +1 x[17,14]  = 1
 auto_c_000000018: +1 x[18,0] +1 x[18,1] +1 x[18,2] +1 x[18,3] +1 x[18,4] +1 x[18,5] +1 x[18,6] +1 x[18,7] +1 x[18,8] +1 x[18,9] +1 x[18,10] +1 x[18,11] +1 x[18,12] +1 x[18,13] +1 x[18,14]  = 1
 auto_c_000000019: +1 x[19,0] +1 x[19,1] +1 x[19,2] +1 x[19,3] +1 x[19,4] +1 x[19,5] +1 x[19,6] +1 x[19,7] +1 x[19,8] +1 x[19,9] +1 x[19,10] +1 x[19,11] +1 x[19,12] +1 x[19,13] +1 x[19,14]  = 1
 auto_c_000000020: +1 x[20,0] +1 x[20,1] +1 x[20,2] +1 x[20,3] +1 x[20,4] +1 x[20,5] +1 x[20,6] +1 x[20,7] +1 x[20,8] +1 x[20,9] +1 x[20,10] +1 x[20,11] +1 x[20,12] +1 x[20,13] +1 x[20,14]  = 1
 auto_c_000000021: +1 x[21,0] +1 x[21,1] +1 x[21,2] +1 x[21,3] +1 x[21,4] +1 x[21,5] +1 x[21,6] +1 x[21,7] +1 x[21,8] +1 x[21,9] +1 x[21,10] +1 x[21,11] +1 x[21,12] +1 x[21,13] +1 x[21,14]  = 1
 auto_c_000000022: +1 x[22,0] +1 x[22,1] +1 x[22,2] +1 x[22,3] +1 x[22,4] +1 x[22,5] +1 x[22,6] +1 x[22,7] +1 x[22,8] +1 x[22,9] +1 x[22,10] +1 x[22,11] +1 x[22,12] +1 x[22,13] +1 x[22,14]  = 1
 auto_c_000000023: +1 x[23,0] +1 x[23,1] +1 x[23,2] +1 x[23,3] +1 x[23,4] +1 x[23,5] +1 x[23,6] +1 x[23,7] +1 x[23,8] +1 x[23,9] +1 x[23,10] +1 x[23,11] +1 x[23,12] +1 x[23,13] +1 x[23,14]  = 1
 auto_c_000000024: +1 x[24,0] +1 x[24,1] +1 x[24,2] +1 x[24,3] +1 x[24,4] +1 x[24,5] +1 x[24,6] +1 x[24,7] +1 x[24,8] +1 x[24,9] +1 x[24,10] +1 x[24,11] +1 x[24,12] +1 x[24,13] +1 x[24,14]  = 1
 auto_c_000000025: +1 x[25,0] +1 x[25,1] +1 x[25,2] +1 x[25,3] +1 x[25,4] +1 x[25,5] +1 x[25,6] +1 x[25,7] +1 x[25,8] +1 x[25,9] +1 x[25,10] +1 x[25,11] +1 x[25,12] +1 x[25,13] +1 x[25,14]  = 1
 auto_c_000000026: +1 x[26,0] +1 x[26,1] +1 x[26,2] +1 x[26,3] +1 x[26,4] +1 x[26,5] +1 x[26,6] +1 x[26,7] +1 x[26,8] +1 x[26,9] +1 x[26,10] +1 x[26,11] +1 x[26,12] +1 x[26,13] +1 x[26,14]  = 1
 auto_c_000000027: +1 x[27,0] +1 x[27,1] +1 x[27,2] +1 x[27,3] +1 x[27,4] +1 x[27,5] +1 x[27,6] +1 x[27,7] +1 x[27,8] +1 x[27,9] +1 x[27,10] +1 x[27,11] +1 x[27,12] +1 x[27,13] +1 x[27,14]  = 1
 auto_c_000000028: +1 x[28,0] +1 x[28,1] +1 x[28,2] +1 x[28,3] +1 x[28,4] +1 x[28,5] +1 x[28,6] +1 x[28,7] +1 x[28,8] +1 x[28,9] +1 x[28,10] +1 x[28,11] +1 x[28,12] +1 x[28,13] +1 x[28,14]  = 1
 auto_c_000000029: +1 x[29,0] +1 x[29,1] +1 x[29,2] +1 x[29,3] +1 x[29,4] +1 x[29,5] +1 x[29,6] +1 x[29,7] +1 x[29,8] +1 x[29,9] +1 x[29,10] +1 x[29,11] +1 x[29,12] +1 x[29,13] +1 x[29,14]  = 1
 auto_c_000000030: +33 x[0,0] +13 x[1,0] +31 x[2,0] +8 x[3,0] +27 x[4,0] +20 x[5,0] +17 x[6,0] +14 x[7,0] +13 x[8,0] +32 x[9,0] +13 x[10,0] +38 x[11,0] +6 x[12,0] +5 x[13,0] +17 x[14,0] +30 x[15,0] +20 x[16,0] +12 x[17,0] +33 x[18,0] +32 x[19,0] +10 x[20,0] +5 x[21,0] +28 x[22,0] +27 x[23,0] +27 x[24,0] +38 x[25,0] +22 x[26,0] +21 x[27,0] +35 x[28,0] +4 x[29,0] -174 y[0]  <= 0
 auto_c_000000031: +33 x[0,1] +13 x[1,1] +31 x[2,1] +8 x[3,1] +27 x[4,1] +20 x[5,1] +17 x[6,1] +14 x[7,1] +13 x[8,1] +32 x[9,1] +13 x[10,1] +38 x[11,1] +6 x[12,1] +5 x[13,1] +17 x[14,1] +30 x[15,1] +20 x[16,1] +12 x[17,1] +33 x[18,1] +32 x[19,1] +10 x[20,1] +5 x[21,1] +28 x[22,1] +27 x[23,1] +27 x[24,1] +38 x[25,1] +22 x[26,1] +21 x[27,1] +35 x[28,1] +4 x[29,1] -62 y[1]  <= 0
 auto_c_000000032: +33 x[0,2] +13 x[1,2] +31 x[2,2] +8 x[3,2] +27 x[4,2] +20 x[5,2] +17 x[6,2] +14 x[7,2] +13 x[8,2] +32 x[9,2] +13 x[10,2] +38 x[11,2] +6 x[12,2] +5 x[13,2] +17 x[14,2] +30 x[15,2] +20 x[16,2] +12 x[17,2] +33 x[18,2] +32 x[19,2] +10 x[20,2] +5 x[21,2] +28 x[22,2] +27 x[23,2] +27 x[24,2] +38 x[25,2] +22 x[26,2] +21 x[27,2] +35 x[28,2] +4 x[29,2] -151 y[2]  <= 0
 auto_c_000000033: +33 x[0,3] +13 x[1,3] +31 x[2,3] +8 x[3,3] +27 x[4,3] +20 x[5,3] +17 x[6,3] +14 x[7,3] +13 x[8,3] +32 x[9,3] +13 x[10,3] +38 x[11,3] +6 x[12,3] +5 x[13,3] +17 x[14,3] +30 x[15,3] +20 x[16,3] +12 x[17,3] +33 x[18,3] +32 x[19,3] +10 x[20,3] +5 x[21,3] +28 x[22,3] +27 x[23,3] +27 x[24,3] +38 x[25,3] +22 x[26,3] +21 x[27,3] +35 x[28,3] +4 x[29,3] -43 y[3]  <= 0
 auto_c_000000034: +33 x[0,4] +13 x[1,4] +31 x[2,4] +8 x[3,4] +27 x[4,4] +20 x[5,4] +17 x[6,4] +14 x[7,4] +13 x[8,4] +32 x[9,4] +13 x[10,4] +38 x[11,4] +6 x[12,4] +5 x[13,4] +17 x[14,4] +30 x[15,4] +20 x[16,4] +12 x[17,4] +33 x[18,4] +32 x[19,4] +10 x[20,4] +5 x[21,4] +28 x[22,4] +27 x[23,4] +27 x[24,4] +38 x[25,4] +22 x[26,4] +21 x[27,4] +35 x[28,4] +4 x[29,4] -160 y[4]  <= 0
 auto_c_000000035: +33 x[0,5] +13 x[1,5] +31 x[2,5] +8 x[3,5] +27 x[4,5] +20 x[5,5] +17 x[6,5] +14 x[7,5] +13 x[8,5] +32 x[9,5] +13 x[10,5] +38 x[11,5] +6 x[12,5] +5 x[13,5] +17 x[14,5] +30 x[15,5] +20 x[16,5] +12 x[17,5] +33 x[18,5] +32 x[19,5] +10 x[20,5] +5 x[21,5] +28 x[22,5] +27 x[23,5] +27 x[24,5] +38 x[25,5] +22 x[26,5] +21 x[27,5] +35 x[28,5] +4 x[29,5] -47 y[5]  <= 0
 auto_c_000000036: +33 x[0,6] +13 x[1,6] +31 x[2,6] +8 x[3,6] +27 x[4,6] +20 x[5,6] +17 x[6,6] +14 x[7,6] +13 x[8,6] +32 x[9,6] +13 x[10,6] +38 x[11,6] +6 x[12,6] +5 x[13,6] +17 x[14,6] +30 x[15,6] +20 x[16,6] +12 x[17,6] +33 x[18,6] +32 x[19,6] +10 x[20,6] +5 x[21,6] +28 x[22,6] +27 x[23,6] +27 x[24,6] +38 x[25,6] +22 x[26,6] +21 x[27,6] +35 x[28,6] +4 x[29,6] -156 y[6]  <= 0
 auto_c_000000037: +33 x[0,7] +13 x[1,7] +31 x[2,7] +8 x[3,7] +27 x[4,7] +20 x[5,7] +17 x[6,7] +14 x[7,7] +13 x[8,7] +32 x[9,7] +13 x[10,7] +38 x[11,7] +6 x[12,7] +5 x[13,7] +17 x[14,7] +30 x[15,7] +20 x[16,7] +12 x[17,7] +33 x[18,7] +32 x[19,7] +10 x[20,7] +5 x[21,7] +28 x[22,7] +27 x[23,7] +27 x[24,7] +38 x[25,7] +22 x[26,7] +21 x[27,7] +35 x[28,7] +4 x[29,7] -157 y[7]  <= 0
 auto_c_000000038: +33 x[0,8] +13 x[1,8] +31 x[2,8] +8 x[3,8] +27 x[4,8] +20 x[5,8] +17 x[6,8] +14 x[7,8] +13 x[8,8] +32 x[9,8] +13 x[10,8] +38 x[11,8] +6 x[12,8] +5 x[13,8] +17 x[14,8] +30 x[15,8] +20 x[16,8] +12 x[17,8] +33 x[18,8] +32 x[19,8] +10 x[20,8] +5 x[21,8] +28 x[22,8] +27 x[23,8] +27 x[24,8] +38 x[25,8] +22 x[26,8] +21 x[27,8] +35 x[28,8] +4 x[29,8] -58 y[8]  <= 0
 auto_c_000000039: +33 x[0,9] +13 x[1,9] +31 x[2,9] +8 x[3,9] +27 x[4,9] +20 x[5,9] +17 x[6,9] +14 x[7,9] +13 x[8,9] +32 x[9,9] +13 x[10,9] +38 x[11,9] +6 x[12,9] +5 x[13,9] +17 x[14,9] +30 x[15,9] +20 x[16,9] +12 x[17,9] +33 x[18,9] +32 x[19,9] +10 x[20,9] +5 x[21,9] +28 x[22,9] +27 x[23,9] +27 x[24,9] +38 x[25,9] +22 x[26,9] +21 x[27,9] +35 x[28,9] +4 x[29,9] -58 y[9]  <= 0
 auto_c_000000040: +33 x[0,10] +13 x[1,10] +31 x[2,10] +8 x[3,10] +27 x[4,10] +20 x[5,10] +17 x[6,10] +14 x[7,10] +13 x[8,10] +32 x[9,10] +13 x[10,10] +38 x[11,10] +6 x[12,10] +5 x[13,10] +17 x[14,10] +30 x[15,10] +20 x[16,10] +12 x[17,10] +33 x[18,10] +32 x[19,10] +10 x[20,10] +5 x[21,10] +28 x[22,10] +27 x[23,10] +27 x[24,10] +38 x[25,10] +22 x[26,10] +21 x[27,10] +35 x[28,10] +4 x[29,10] -96 y[10]  <= 0
 auto_c_000000041: +33 x[0,11] +13 x[1,11] +31 x[2,11] +8 x[3,11] +27 x[4,11] +20 x[5,11] +17 x[6,11] +14 x[7,11] +13 x[8,11] +32 x[9,11] +13 x[10,11] +38 x[11,11] +6 x[12,11] +5 x[13,11] +17 x[14,11] +30 x[15,11] +20 x[16,11] +12 x[17,11] +33 x[18,11] +32 x[19,11] +10 x[20,11] +5 x[21,11] +28 x[22,11] +27 x[23,11] +27 x[24,11] +38 x[25,11] +22 x[26,11] +21 x[27,11] +35 x[28,11] +4 x[29,11] -117 y[11]  <= 0
 auto_c_000000042: +33 x[0,12] +13 x[1,12] +31 x[2,12] +8 x[3,12] +27 x[4,12] +20 x[5,12] +17 x[6,12] +14 x[7,12] +13 x[8,12] +32 x[9,12] +13 x[10,12] +38 x[11,12] +6 x[12,12] +5 x[13,12] +17 x[14,12] +30 x[15,12] +20 x[16,12] +12 x[17,12] +33 x[18,12] +32 x[19,12] +10 x[20,12] +5 x[21,12] +28 x[22,12] +27 x[23,12] +27 x[24,12] +38 x[25,12] +22 x[26,12] +21 x[27,12] +35 x[28,12] +4 x[29,12] -61 y[12]  <= 0
 auto_c_000000043: +33 x[0,13] +13 x[1,13] +31 x[2,13] +8 x[3,13] +27 x[4,13] +20 x[5,13] +17 x[6,13] +14 x[7,13] +13 x[8,13] +32 x[9,13] +13 x[10,13] +38 x[11,13] +6 x[12,13] +5 x[13,13] +17 x[14,13] +30 x[15,13] +20 x[16,13] +12 x[17,13] +33 x[18,13] +32 x[19,13] +10 x[20,13] +5 x[21,13] +28 x[22,13] +27 x[23,13] +27 x[24,13] +38 x[25,13] +22 x[26,13] +21 x[27,13] +35 x[28,13] +4 x[29,13] -64 y[13]  <= 0
 auto_c_000000044: +33 x[0,14] +13 x[1,14] +31 x[2,14] +8 x[3,14] +27 x[4,14] +20 x[5,14] +17 x[6,14] +14 x[7,14] +13 x[8,14] +32 x[9,14] +13 x[10,14] +38 x[11,14] +6 x[12,14] +5 x[13,14] +17 x[14,14] +30 x[15,14] +20 x[16,14] +12 x[17,14] +33 x[18,14] +32 x[19,14] +10 x[20,14] +5 x[21,14] +28 x[22,14] +27 x[23,14] +27 x[24,14] +38 x[25,14] +22 x[26,14] +21 x[27,14] +35 x[28,14] +4 x[29,14] -141 y[14]  <= 0
Bounds
 0 <= x[0,0] <= 1
 0 <= x[1,0] <= 1
 0 <= x[2,0] <= 1
 0 <= x[3,0] <= 1
 0 <= x[4,0] <= 1
 0 <= x[5,0] <= 1
 0 <= x[6,0] <= 1
 0 <= x[7,0] <= 1
 0 <= x[8,0] <= 1
 0 <= x[9,0] <= 1
 0 <= x[10,0] <= 1
 0 <= x[11,0] <= 1
 0 <= x[12,0] <= 1
 0 <= x[13,0] <= 1
 0 <= x[14,0] <= 1
 0 <= x[15,0] <= 1
 0 <= x[16,0] <= 1
 0 <= x[17,0] <= 1
 0 <= x[18,0] <= 1
 0 <= x[19,0] <= 1
 0 <= x[20,0] <= 1
 0 <= x[21,0] <= 1
 0 <= x[22,0] <= 1
 0 <= x[23,0] <= 1
 0 <= x[24,0] <= 1
 0 <= x[25,0] <= 1
 0 <= x[26,0] <= 1
 0 <= x[27,0] <= 1
 0 <= x[28,0] <= 1
 0 <= x[29,0] <= 1
 0 <= x[0,1] <= 1
 0 <= x[1,1] <= 1
 0 <= x[2,1] <= 1
 0 <= x[3,1] <= 1
 0 <= x[4,1] <= 1
 0 <= x[5,1] <= 1
 0 <= x[6,1] <= 1
 0 <= x[7,1] <= 1
 0 <= x[8,1] <= 1
 0 <= x[9,1] <= 1
 0 <= x[10,1] <= 1
 0 <= x[11,1] <= 1
 0 <= x[12,1] <= 1
 0 <= x[13,1] <= 1
 0 <= x[14,1] <= 1
 0 <= x[15,1] <= 1
 0 <= x[16,1] <= 1
 0 <= x[17,1] <= 1
 0 <= x[18,1] <= 1
 0 <= x[19,1] <= 1
 0 <= x[20,1] <= 1
 0 <= x[21,1] <= 1
 0 <= x[22,1] <= 1
 0 <= x[23,1] <= 1
 0 <= x[24,1] <= 1
 0 <= x[25,1] <= 1
 0 <= x[26,1] <= 1
 0 <= x[27,1] <= 1
 0 <= x[28,1] <= 1
 0 <= x[29,1] <= 1
 0 <= x[0,2] <= 1
 0 <= x[1,2] <= 1
 0 <= x[2,2] <= 1
 0 <= x[3,2] <= 1
 0 <= x[4,2] <= 1
 0 <= x[5,2] <= 1
 0 <= x[6,2] <= 1
 0 <= x[7,2] <= 1
 0 <= x[8,2] <= 1
 0 <= x[9,2] <= 1
 0 <= x[10,2] <= 1
 0 <= x[11,2] <= 1
 0 <= x[12,2] <= 1
 0 <= x[13,2] <= 1
 0 <= x[14,2] <= 1
 0 <= x[15,2] <= 1
 0 <= x[16,2] <= 1
 0 <= x[17,2] <= 1
 0 <= x[18,2] <= 1
 0 <= x[19,2] <= 1
 0 <= x[20,2] <= 1
 0 <= x[21,2] <= 1
 0 <= x[22,2] <= 1
 0 <= x[23,2] <= 1
 0 <= x[24,2] <= 1
 0 <= x[25,2] <= 1
 0 <= x[26,2] <= 1
 0 <= x[27,2] <= 1
 0 <= x[28,2] <= 1
 0 <= x[29,2] <= 1
 0 <= x[0,3] <= 1
 0 <= x[1,3] <= 1
 0 <= x[2,3] <= 1
 0 <= x[3,3] <= 1
 0 <= x[4,3] <= 1
 0 <= x[5,3] <= 1
 0 <= x[6,3] <= 1
 0 <= x[7,3] <= 1
 0 <= x[8,3] <= 1
 0 <= x[9,3] <= 1
 0 <= x[10,3] <= 1
 0 <= x[11,3] <= 1
 0 <= x[12,3] <= 1
 0 <= x[13,3] <= 1
 0 <= x[14,3] <= 1
 0 <= x[15,3] <= 1
 0 <= x[16,3] <= 1
 0 <= x[17,3] <= 1
 0 <= x[18,3] <= 1
 0 <= x[19,3] <= 1
 0 <= x[20,3] <= 1
 0 <= x[21,3] <= 1
 0 <= x[22,3] <= 1
 0 <= x[23,3] <= 1
 0 <= x[24,3] <= 1
 0 <= x[25,3] <= 1
 0 <= x[26,3] <= 1
 0 <= x[27,3] <= 1
 0 <= x[28,3] <= 1
 0 <= x[29,3] <= 1
 0 <= x[0,4] <= 1
 0 <= x[1,4] <= 1
 0 <= x[2,4] <= 1
 0 <= x[3,4] <= 1
 0 <= x[4,4] <= 1
 0 <= x[5,4] <= 1
 0 <= x[6,4] <= 1
 0 <= x[7,4] <= 1
 0 <= x[8,4] <= 1
 0 <= x[9,4] <= 1
 0 <= x[10,4] <= 1
 0 <= x[11,4] <= 1
 0 <= x[12,4] <= 1
 0 <= x[13,4] <= 1
 0 <= x[14,4] <= 1
 0 <= x[15,4] <= 1
 0 <= x[16,4] <= 1
 0 <= x[17,4] <= 1
 0 <= x[18,4] <= 1
 0 <= x[19,4] <= 1
 0 <= x[20,4] <= 1
 0 <= x[21,4] <= 1
 0 <= x[22,4] <= 1
 0 <= x[23,4] <= 1
 0 <= x[24,4] <= 1
 0 <= x[25,4] <= 1
 0 <= x[26,4] <= 1
 0 <= x[27,4] <= 1
 0 <= x[28,4] <= 1
 0 <= x[29,4] <= 1
 0 <= x[0,5] <= 1
 0 <= x[1,5] <= 1
 0 <= x[2,5] <= 1
 0 <= x[3,5] <= 1
 0 <= x[4,5] <= 1
 0 <= x[5,5] <= 1
 0 <= x[6,5] <= 1
 0 <= x[7,5] <= 1
 0 <= x[8,5] <= 1
 0 <= x[9,5] <= 1
 0 <= x[10,5] <= 1
 0 <= x[11,5] <= 1
 0 <= x[12,5] <= 1
 0 <= x[13,5] <= 1
 0 <= x[14,5] <= 1
 0 <= x[15,5] <= 1
 0 <= x[16,5] <= 1
 0 <= x[17,5] <= 1
 0 <= x[18,5] <= 1
 0 <= x[19,5] <= 1
 0 <= x[20,5] <= 1
 0 <= x[21,5] <= 1
 0 <= x[22,5] <= 1
 0 <= x[23,5] <= 1
 0 <= x[24,5] <= 1
 0 <= x[25,5] <= 1
 0 <= x[26,5] <= 1
 0 <= x[27,5] <= 1
 0 <= x[28,5] <= 1
 0 <= x[29,5] <= 1
 0 <= x[0,6] <= 1
 0 <= x[1,6] <= 1
 0 <= x[2,6] <= 1
 0 <= x[3,6] <= 1
 0 <= x[4,6] <= 1
 0 <= x[5,6] <= 1
 0 <= x[6,6] <= 1
 0 <= x[7,6] <= 1
 0 <= x[8,6] <= 1
 0 <= x[9,6] <= 1
 0 <= x[10,6] <= 1
 0 <= x[11,6] <= 1
 0 <= x[12,6] <= 1
 0 <= x[13,6] <= 1
 0 <= x[14,6] <= 1
 0 <= x[15,6] <= 1
 0 <= x[16,6] <= 1
 0 <= x[17,6] <= 1
 0 <= x[18,6] <= 1
 0 <= x[19,6] <= 1
 0 <= x[20,6] <= 1
 0 <= x[21,6] <= 1
 0 <= x[22,6] <= 1
 0 <= x[23,6] <= 1
 0 <= x[24,6] <= 1
 0 <= x[25,6] <= 1
 0 <= x[26,6] <= 1
 0 <= x[27,6] <= 1
 0 <= x[28,6] <= 1
 0 <= x[29,6] <= 1
 0 <= x[0,7] <= 1
 0 <= x[1,7] <= 1
 0 <= x[2,7] <= 1
 0 <= x[3,7] <= 1
 0 <= x[4,7] <= 1
 0 <= x[5,7] <= 1
 0 <= x[6,7] <= 1
 0 <= x[7,7] <= 1
 0 <= x[8,7] <= 1
 0 <= x[9,7] <= 1
 0 <= x[10,7] <= 1
 0 <= x[11,7] <= 1
 0 <= x[12,7] <= 1
 0 <= x[13,7] <= 1
 0 <= x[14,7] <= 1
 0 <= x[15,7] <= 1
 0 <= x[16,7] <= 1
 0 <= x[17,7] <= 1
 0 <= x[18,7] <= 1
 0 <= x[19,7] <= 1
 0 <= x[20,7] <= 1
 0 <= x[21,7] <= 1
 0 <= x[22,7] <= 1
 0 <= x[23,7] <= 1
 0 <= x[24,7] <= 1
 0 <= x[25,7] <= 1
 0 <= x[26,7] <= 1
 0 <= x[27,7] <= 1
 0 <= x[28,7] <= 1
 0 <= x[29,7] <= 1
 0 <= x[0,8] <= 1
 0 <= x[1,8] <= 1
 0 <= x[2,8] <= 1
 0 <= x[3,8] <= 1
 0 <= x[4,8] <= 1
 0 <= x[5,8] <= 1
 0 <= x[6,8] <= 1
 0 <= x[7,8] <= 1
 0 <= x[8,8] <= 1
 0 <= x[9,8] <= 1
 0 <= x[10,8] <= 1
 0 <= x[11,8] <= 1
 0 <= x[12,8] <= 1
 0 <= x[13,8] <= 1
 0 <= x[14,8] <= 1
 0 <= x[15,8] <= 1
 0 <= x[16,8] <= 1
 0 <= x[17,8] <= 1
 0 <= x[18,8] <= 1
 0 <= x[19,8] <= 1
 0 <= x[20,8] <= 1
 0 <= x[21,8] <= 1
 0 <= x[22,8] <= 1
 0 <= x[23,8] <= 1
 0 <= x[24,8] <= 1
 0 <= x[25,8] <= 1
 0 <= x[26,8] <= 1
 0 <= x[27,8] <= 1
 0 <= x[28,8] <= 1
 0 <= x[29,8] <= 1
 0 <= x[0,9] <= 1
 0 <= x[1,9] <= 1
 0 <= x[2,9] <= 1
 0 <= x[3,9] <= 1
 0 <= x[4,9] <= 1
 0 <= x[5,9] <= 1
 0 <= x[6,9] <= 1
 0 <= x[7,9] <= 1
 0 <= x[8,9] <= 1
 0 <= x[9,9] <= 1
 0 <= x[10,9] <= 1
 0 <= x[11,9] <= 1
 0 <= x[12,9] <= 1
 0 <= x[13,9] <= 1
 0 <= x[14,9] <= 1
 0 <= x[15,9] <= 1
 0 <= x[16,9] <= 1
 0 <= x[17,9] <= 1
 0 <= x[18,9] <= 1
 0 <= x[19,9] <= 1
 0 <= x[20,9] <= 1
 0 <= x[21,9] <= 1
 0 <= x[22,9] <= 1
 0 <= x[23,9] <= 1
 0 <= x[24,9] <= 1
 0 <= x[25,9] <= 1
 0 <= x[26,9] <= 1
 0 <= x[27,9] <= 1
 0 <= x[28,9] <= 1
 0 <= x[29,9] <= 1
 0 <= x[0,10] <= 1
 0 <= x[1,10] <= 1
 0 <= x[2,10] <= 1
 0 <= x[3,10] <= 1
 0 <= x[4,10] <= 1
 0 <= x[5,10] <= 1
 0 <= x[6,10] <= 1
 0 <= x[7,10] <= 1
 0 <= x[8,10] <= 1
 0 <= x[9,10] <= 1
 0 <= x[10,10] <= 1
 0 <= x[11,10] <= 1
 0 <= x[12,10] <= 1
 0 <= x[13,10] <= 1
 0 <= x[14,10] <= 1
 0 <= x[15,10] <= 1
 0 <= x[16,10] <= 1
 0 <= x[17,10] <= 1
 0 <= x[18,10] <= 1
 0 <= x[19,10] <= 1
 0 <= x[20,10] <= 1
 0 <= x[21,10] <= 1
 0 <= x[22,10] <= 1
 0 <= x[23,10] <= 1
 0 <= x[24,10] <= 1
 0 <= x[25,10] <= 1
 0 <= x[26,10] <= 1
 0 <= x[27,10] <= 1
 0 <= x[28,10] <= 1
 0 <= x[29,10] <= 1
 0 <= x[0,11] <= 1
 0 <= x[1,11] <= 1
 0 <= x[2,11] <= 1
 0 <= x[3,11] <= 1
 0 <= x[4,11] <= 1
 0 <= x[5,11] <= 1
 0 <= x[6,11] <= 1
 0 <= x[7,11] <= 1
 0 <= x[8,11] <= 1
 0 <= x[9,11] <= 1
 0 <= x[10,11] <= 1
 0 <= x[11,11] <= 1
 0 <= x[12,11] <= 1
 0 <= x[13,11] <= 1
 0 <= x[14,11] <= 1
 0 <= x[15,11] <= 1
 0 <= x[16,11] <= 1
 0 <= x[17,11] <= 1
 0 <= x[18,11] <= 1
 0 <= x[19,11] <= 1
 0 <= x[20,11] <= 1
 0 <= x[21,11] <= 1
 0 <= x[22,11] <= 1
 0 <= x[23,11] <= 1
 0 <= x[24,11] <= 1
 0 <= x[25,11] <= 1
 0 <= x[26,11] <= 1
 0 <= x[27,11] <= 1
 0 <= x[28,11] <= 1
 0 <= x[29,11] <= 1
 0 <= x[0,12] <= 1
 0 <= x[1,12] <= 1
 0 <= x[2,12] <= 1
 0 <= x[3,12] <= 1
 0 <= x[4,12] <= 1
 0 <= x[5,12] <= 1
 0 <= x[6,12] <= 1
 0 <= x[7,12] <= 1
 0 <= x[8,12] <= 1
 0 <= x[9,12] <= 1
 0 <= x[10,12] <= 1
 0 <= x[11,12] <= 1
 0 <= x[12,12] <= 1
 0 <= x[13,12] <= 1
 0 <= x[14,12] <= 1
 0 <= x[15,12] <= 1
 0 <= x[16,12] <= 1
 0 <= x[17,12] <= 1
 0 <= x[18,12] <= 1
 0 <= x[19,12] <= 1
 0 <= x[20,12] <= 1
 0 <= x[21,12] <= 1
 0 <= x[22,12] <= 1
 0 <= x[23,12] <= 1
 0 <= x[24,12] <= 1
 0 <= x[25,12] <= 1
 0 <= x[26,12] <= 1
 0 <= x[27,12] <= 1
 0 <= x[28,12] <= 1
 0 <= x[29,12] <= 1
 0 <= x[0,13] <= 1
 0 <= x[1,13] <= 1
 0 <= x[2,13] <= 1
 0 <= x[3,13] <= 1
 0 <= x[4,13] <= 1
 0 <= x[5,13] <= 1
 0 <= x[6,13] <= 1
 0 <= x[7,13] <= 1
 0 <= x[8,13] <= 1
 0 <= x[9,13] <= 1
 0 <= x[10,13] <= 1
 0 <= x[11,13] <= 1
 0 <= x[12,13] <= 1
 0 <= x[13,13] <= 1
 0 <= x[14,13] <= 1
 0 <= x[15,13] <= 1
 0 <= x[16,13] <= 1
 0 <= x[17,13] <= 1
 0 <= x[18,13] <= 1
 0 <= x[19,13] <= 1
 0 <= x[20,13] <= 1
 0 <= x[21,13] <= 1
 0 <= x[22,13] <= 1
 0 <= x[23,13] <= 1
 0 <= x[24,13] <= 1
 0 <= x[25,13] <= 1
 0 <= x[26,13] <= 1
 0 <= x[27,13] <= 1
 0 <= x[28,13] <= 1
 0 <= x[29,13] <= 1
 0 <= x[0,14] <= 1
 0 <= x[1,14] <= 1
 0 <= x[2,14] <= 1
 0 <= x[3,14] <= 1
 0 <= x[4,14] <= 1
 0 <= x[5,14] <= 1
 0 <= x[6,14] <= 1
 0 <= x[7,14] <= 1
 0 <= x[8,14] <= 1
 0 <= x[9,14] <= 1
 0 <= x[10,14] <= 1
 0 <= x[11,14] <= 1
 0 <= x[12,14] <= 1
 0 <= x[13,14] <= 1
 0 <= x[14,14] <= 1
 0 <= x[15,14] <= 1
 0 <= x[16,14] <= 1
 0 <= x[17,14] <= 1
 0 <= x[18,14] <= 1
 0 <= x[19,14] <= 1
 0 <= x[20,14] <= 1
 0 <= x[21,14] <= 1
 0 <= x[22,14] <= 1
 0 <= x[23,14] <= 1
 0 <= x[24,14] <= 1
 0 <= x[25,14] <= 1
 0 <= x[26,14] <= 1
 0 <= x[27,14] <= 1
 0 <= x[28,14] <= 1
 0 <= x[29,14] <= 1
 0 <= y[0] <= 1
 0 <= y[1] <= 1
 0 <= y[2] <= 1
 0 <= y[3] <= 1
 0 <= y[4] <= 1
 0 <= y[5] <= 1
 0 <= y[6] <= 1
 0 <= y[7] <= 1
 0 <= y[8] <= 1
 0 <= y[9] <= 1
 0 <= y[10] <= 1
 0 <= y[11] <= 1
 0 <= y[12] <= 1
 0 <= y[13] <= 1
 0 <= y[14] <= 1
Binaries
 x[0,0]
 x[1,0]
 x[2,0]
 x[3,0]
 x[4,0]
 x[5,0]
 x[6,0]
 x[7,0]
 x[8,0]
 x[9,0]
 x[10,0]
 x[11,0]
 x[12,0]
 x[13,0]
 x[14,0]
 x[15,0]
 x[16,0]
 x[17,0]
 x[18,0]
 x[19,0]
 x[20,0]
 x[21,0]
 x[22,0]
 x[23,0]
 x[24,0]
 x[25,0]
 x[26,0]
 x[27,0]
 x[28,0]
 x[29,0]
 x[0,1]
 x[1,1]
 x[2,1]
 x[3,1]
 x[4,1]
 x[5,1]
 x[6,1]
 x[7,1]
 x[8,1]
 x[9,1]
 x[10,1]
 x[11,1]
 x[12,1]
 x[13,1]
 x[14,1]
 x[15,1]
 x[16,1]
 x[17,1]
 x[18,1]
 x[19,1]
 x[20,1]
 x[21,1]
 x[22,1]
 x[23,1]
 x[24,1]
 x[25,1]
 x[26,1]
 x[27,1]
 x[28,1]
 x[29,1]
 x[0,2]
 x[1,2]
 x[2,2]
 x[3,2]
 x[4,2]
 x[5,2]
 x[6,2]
 x[7,2]
 x[8,2]
 x[9,2]
 x[10,2]
 x[11,2]
 x[12,2]
 x[13,2]
 x[14,2]
 x[15,2]
 x[16,2]
 x[17,2]
 x[18,2]
 x[19,2]
 x[20,2]
 x[21,2]
 x[22,2]
 x[23,2]
 x[24,2]
 x[25,2]
 x[26,2]
 x[27,2]
 x[28,2]
 x[29,2]
 x[0,3]
 x[1,3]
 x[2,3]
 x[3,3]
 x[4,3]
 x[5,3]
 x[6,3]
 x[7,3]
 x[8,3]
 x[9,3]
 x[10,3]
 x[11,3]
 x[12,3]
 x[13,3]
 x[14,3]
 x[15,3]
 x[16,3]
 x[17,3]
 x[18,3]
 x[19,3]
 x[20,3]
 x[21,3]
 x[22,3]
 x[23,3]
 x[24,3]
 x[25,3]
 x[26,3]
 x[27,3]
 x[28,3]
 x[29,3]
 x[0,4]
 x[1,4]
 x[2,4]
 x[3,4]
 x[4,4]
 x[5,4]
 x[6,4]
 x[7,4]
 x[8,4]
 x[9,4]
 x[10,4]
 x[11,4]
 x[12,4]
 x[13,4]
 x[14,4]
 x[15,4]
 x[16,4]
 x[17,4]
 x[18,4]
 x[19,4]
 x[20,4]
 x[21,4]
 x[22,4]
 x[23,4]
 x[24,4]
 x[25,4]
 x[26,4]
 x[27,4]
 x[28,4]
 x[29,4]
 x[0,5]
 x[1,5]
 x[2,5]
 x[3,5]
 x[4,5]
 x[5,5]
 x[6,5]
 x[7,5]
 x[8,5]
 x[9,5]
 x[10,5]
 x[11,5]
 x[12,5]
 x[13,5]
 x[14,5]
 x[15,5]
 x[16,5]
 x[17,5]
 x[18,5]
 x[19,5]
 x[20,5]
 x[21,5]
 x[22,5]
 x[23,5]
 x[24,5]
 x[25,5]
 x[26,5]
 x[27,5]
 x[28,5]
 x[29,5]
 x[0,6]
 x[1,6]
 x[2,6]
 x[3,6]
 x[4,6]
 x[5,6]
 x[6,6]
 x[7,6]
 x[8,6]
 x[9,6]
 x[10,6]
 x[11,6]
 x[12,6]
 x[13,6]
 x[14,6]
 x[15,6]
 x[16,6]
 x[17,6]
 x[18,6]
 x[19,6]
 x[20,6]
 x[21,6]
 x[22,6]
 x[23,6]
 x[24,6]
 x[25,6]
 x[26,6]
 x[27,6]
 x[28,6]
 x[29,6]
 x[0,7]
 x[1,7]
 x[2,7]
 x[3,7]
 x[4,7]
 x[5,7]
 x[6,7]
 x[7,7]
 x[8,7]
 x[9,7]
 x[10,7]
 x[11,7]
 x[12,7]
 x[13,7]
 x[14,7]
 x[15,7]
 x[16,7]
 x[17,7]
 x[18,7]
 x[19,7]
 x[20,7]
 x[21,7]
 x[22,7]
 x[23,7]
 x[24,7]
 x[25,7]
 x[26,7]
 x[27,7]
 x[28,7]
 x[29,7]
 x[0,8]
 x[1,8]
 x[2,8]
 x[3,8]
 x[4,8]
 x[5,8]
 x[6,8]
 x[7,8]
 x[8,8]
 x[9,8]
 x[10,8]
 x[11,8]
 x[12,8]
 x[13,8]
 x[14,8]
 x[15,8]
 x[16,8]
 x[17,8]
 x[18,8]
 x[19,8]
 x[20,8]
 x[21,8]
 x[22,8]
 x[23,8]
 x[24,8]
 x[25,8]
 x[26,8]
 x[27,8]
 x[28,8]
 x[29,8]
 x[0,9]
 x[1,9]
 x[2,9]
 x[3,9]
 x[4,9]
 x[5,9]
 x[6,9]
 x[7,9]
 x[8,9]
 x[9,9]
 x[10,9]
 x[11,9]
 x[12,9]
 x[13,9]
 x[14,9]
 x[15,9]
 x[16,9]
 x[17,9]
 x[18,9]
 x[19,9]
 x[20,9]
 x[21,9]
 x[22,9]
 x[23,9]
 x[24,9]
 x[25,9]
 x[26,9]
 x[27,9]
 x[28,9]
 x[29,9]
 x[0,10]
 x[1,10]
 x[2,10]
 x[3,10]
 x[4,10]
 x[5,10]
 x[6,10]
 x[7,10]
 x[8,10]
 x[9,10]
 x[10,10]
 x[11,10]
 x[12,10]
 x[13,10]
 x[14,10]
 x[15,10]
 x[16,10]
 x[17,10]
 x[18,10]
 x[19,10]
 x[20,10]
 x[21,10]
 x[22,10]
 x[23,10]
 x[24,10]
 x[25,10]
 x[26,10]
 x[27,10]
 x[28,10]
 x[29,10]
 x[0,11]
 x[1,11]
 x[2,11]
 x[3,11]
 x[4,11]
 x[5,11]
 x[6,11]
 x[7,11]
 x[8,11]
 x[9,11]
 x[10,11]
 x[11,11]
 x[12,11]
 x[13,11]
 x[14,11]
 x[15,11]
 x[16,11]
 x[17,11]
 x[18,11]
 x[19,11]
 x[20,11]
 x[21,11]
 x[22,11]
 x[23,11]
 x[24,11]
 x[25,11]
 x[26,11]
 x[27,11]
 x[28,11]
 x[29,11]
 x[0,12]
 x[1,12]
 x[2,12]
 x[3,12]
 x[4,12]
 x[5,12]
 x[6,12]
 x[7,12]
 x[8,12]
 x[9,12]
 x[10,12]
 x[11,12]
 x[12,12]
 x[13,12]
 x[14,12]
 x[15,12]
 x[16,12]
 x[17,12]
 x[18,12]
 x[19,12]
 x[20,12]
 x[21,12]
 x[22,12]
 x[23,12]
 x[24,12]
 x[25,12]
 x[26,12]
 x[27,12]
 x[28,12]
 x[29,12]
 x[0,13]
 x[1,13]
 x[2,13]
 x[3,13]
 x[4,13]
 x[5,13]
 x[6,13]
 x[7,13]
 x[8,13]
 x[9,13]
 x[10,13]
 x[11,13]
 x[12,13]
 x[13,13]
 x[14,13]
 x[15,13]
 x[16,13]
 x[17,13]
 x[18,13]
 x[19,13]
 x[20,13]
 x[21,13]
 x[22,13]
 x[23,13]
 x[24,13]
 x[25,13]
 x[26,13]
 x[27,13]
 x[28,13]
 x[29,13]
 x[0,14]
 x[1,14]
 x[2,14]
 x[3,14]
 x[4,14]
 x[5,14]
 x[6,14]
 x[7,14]
 x[8,14]
 x[9,14]
 x[10,14]
 x[11,14]
 x[12,14]
 x[13,14]
 x[14,14]
 x[15,14]
 x[16,14]
 x[17,14]
 x[18,14]
 x[19,14]
 x[20,14]
 x[21,14]
 x[22,14]
 x[23,14]
 x[24,14]
 x[25,14]
 x[26,14]
 x[27,14]
 x[28,14]
 x[29,14]
 y[0]
 y[1]
 y[2]
 y[3]
 y[4]
 y[5]
 y[6]
 y[7]
 y[8]
 y[9]
 y[10]
 y[11]
 y[12]
 y[13]
 y[14]
End
